1 51 2
-105 -333 -669 -793 -797 -116 -434 -829 -9 -255 -879 -670 -513 -224 -661 -274 -971 -59 -44 -784 -755 -590 -624 -436 -841 -237 -165 -180 -372 -381 -541 -642 -651 -188 -293 -684 -191 -969 -354 -928 -888 -592 -281 -787 -761 -257 -965 -44 -365 -925 0 
-982 -570 -338 -165 -202 -828 -640 -196 -891 -839 -50 -302 -536 -777 -398 -734 -9 -940 -873 -190 -306 -492 -357 -594 -102 -675 -778 -761 -726 -684 -452 -273 -294 -715 -655 -219 -828 -111 -659 -136 -47 -389 -747 -240 -205 -721 -12 -979 -604 -115 0 
119 732 61 474 718 305 747 95 246 568 139 470 323 662 77 42 790 577 215 495 916 661 703 313 62 500 315 432 964 583 29 480 736 21 357 864 300 928 325 635 897 165 68 832 162 111 366 114 904 97 1 
10847 
